NAME lp_typeD_932
OBJSENSE MAX
ROWS
 N  OBJ
 L  c0      
 G  c1      
 G  c2      
 L  c_key_upper
 G  c_key_lower
 L  _saboteur_conflict_c_key_lower
COLUMNS
    x0        OBJ       1.4855350134038128e+00
    x0        c0        1.0820895367273060e+00
    x0        c1        1.2714466180813451e+00
    x0        c2        1.2859082095682262e+00
    x0        c_key_upper  1.0921467071207458e+00
    x0        c_key_lower  1.0921467071207458e+00
    x0        _saboteur_conflict_c_key_lower  1.0921467071207458e+00
    x1        OBJ       5.0370207985592641e-01
    x1        c0        7.5837316830498236e-01
    x1        c1        1.0716880205833499e+00
    x1        c2        1.4356003884246902e+00
    x1        c_key_upper  1.8871362617865297e+00
    x1        c_key_lower  1.8871362617865297e+00
    x1        _saboteur_conflict_c_key_lower  1.8871362617865297e+00
    x2        OBJ       8.7065066599724916e-01
    x2        c0        9.3909121940424289e-01
    x2        c1        1.4545018021583129e+00
    x2        c2        1.6749549295893935e+00
    x2        c_key_upper  1.4442313761177439e+00
    x2        c_key_lower  1.4442313761177439e+00
    x2        _saboteur_conflict_c_key_lower  1.4442313761177439e+00
    x3        OBJ       6.7053303868914371e-01
    x3        c0        8.8306841725034824e-01
    x3        c1        1.6828235325605612e+00
    x3        c2        1.6526154671260778e+00
    x3        c_key_upper  1.3792668296352133e+00
    x3        c_key_lower  1.3792668296352133e+00
    x3        _saboteur_conflict_c_key_lower  1.3792668296352133e+00
    x4        OBJ       9.4031059071618706e-01
    x4        c0        1.2540559059960976e+00
    x4        c1        9.1432502503067226e-01
    x4        c2        1.7648282901953771e+00
    x4        c_key_upper  1.7635120212591069e+00
    x4        c_key_lower  1.7635120212591069e+00
    x4        _saboteur_conflict_c_key_lower  1.7635120212591069e+00
    x5        OBJ       7.6616908685735419e-01
    x5        c0        1.0017635104272764e+00
    x5        c1        1.1578832364882146e+00
    x5        c2        8.8099740531668269e-01
    x5        c_key_upper  1.1669410861082525e+00
    x5        c_key_lower  1.1669410861082525e+00
    x5        _saboteur_conflict_c_key_lower  1.1669410861082525e+00
    x6        OBJ       8.6464439694360784e-01
    x6        c0        1.1780248676064451e+00
    x6        c1        6.9513356168484552e-01
    x6        c2        1.8303468411947570e+00
    x6        c_key_upper  1.7540162145718670e+00
    x6        c_key_lower  1.7540162145718670e+00
    x6        _saboteur_conflict_c_key_lower  1.7540162145718670e+00
    x7        OBJ       1.3358729131075355e+00
    x7        c0        1.4320385023291116e+00
    x7        c1        0.625784644669843
    x7        c2        1.0248009382985983e+00
    x7        c_key_upper  1.5267236010611240e+00
    x7        c_key_lower  1.5267236010611240e+00
    x7        _saboteur_conflict_c_key_lower  1.5267236010611240e+00
    x8        OBJ       1.3218383915546064e+00
    x8        c0        1.2150193543569479e+00
    x8        c1        8.3453094722607779e-01
    x8        c2        1.1008562092199754e+00
    x8        c_key_upper  1.7254798180687265e+00
    x8        c_key_lower  1.7254798180687265e+00
    x8        _saboteur_conflict_c_key_lower  1.7254798180687265e+00
    x9        OBJ       1.4997819548007980e+00
    x9        c0        1.5439423359425473e+00
    x9        c1        9.9875627822122470e-01
    x9        c2        1.6794690490710864e+00
    x9        c_key_upper  1.3833031493512338e+00
    x9        c_key_lower  1.3833031493512338e+00
    x9        _saboteur_conflict_c_key_lower  1.3833031493512338e+00
RHS
    RHS1      c0        4.6232974067584585e+01
    RHS1      c1        1.8642856434057329e+01
    RHS1      c2        2.0903991657155544e+01
    RHS1      c_key_upper  7.5613785325402716e+01
    RHS1      c_key_lower  3.7806892662701358e+01
    RHS1      _saboteur_conflict_c_key_lower  -10
BOUNDS
 UP BND1      x0        10
 UP BND1      x1        10
 UP BND1      x2        10
 UP BND1      x3        10
 UP BND1      x4        10
 UP BND1      x5        10
 UP BND1      x6        10
 UP BND1      x7        10
 UP BND1      x8        10
 UP BND1      x9        10
ENDATA
